0 0
1 0
2 0
3 2
4 0
5 0
6 2
7 0
8 0
9 0
10 0
0 1
11 0
12 0
4 2
13 0
6 0
14 0
15 0
16 0
5 1
17 0
18 0
11 1
19 0
20 0
7 1
19 1
1 1
3 0
21 0
22 0
23 0
24 0
25 0
23 1
26 0
8 1
27 0
28 1
29 0
30 0
31 0
32 0
33 0
25 4
24 1
34 0
35 0
36 0
37 0
28 0
38 0
39 0
40 0
2 1
41 0
42 0
43 0
7 2
44 0
12 1
26 1
9 2
36 1
14 1
10 1
16 2
30 1
15 1
13 1
22 1
-1 -1
20 1
18 1
-1 -1
43 1
41 1
29 1
39 1
18 2
33 2
21 1
31 2
40 1
9 1
-1 -1
-1 -1
11 2
12 2
6 1
34 1
4 1
17 5
27 1
16 4
35 1
-1 -1
5 5
-1 -1
0 2
5 2
37 1
32 1
-1 -1
8 2
44 1
-1 -1
38 4
-1 -1
-1 -1
35 2
41 2
-1 -1
31 1
42 1
13 2
-1 -1
2 2
36 2
33 1
14 2
10 4
19 5
17 1
25 1
27 9
1 2
-1 -1
-1 -1
28 4
22 2
20 2
12 9
-1 -1
21 2
26 4
42 2
24 2
16 1
8 4
27 2
-1 -1
34 2
30 5
-1 -1
32 9
23 2
3 6
29 2
1 3
2 3
-1 -1
-1 -1
16 5
32 2
-1 -1
39 2
40 2
37 2
24 3
36 4
43 2
28 2
-1 -1
44 2
-1 -1
6 6
4 3
-1 -1
19 2
-1 -1
15 2
9 4
-1 -1
-1 -1
-1 -1
-1 -1
-1 -1
-1 -1
-1 -1
-1 -1
15 3
-1 -1
26 5
-1 -1
-1 -1
-1 -1
11 6
12 3
-1 -1
-1 -1
-1 -1
14 4
10 5
16 3
-1 -1
-1 -1
21 4
-1 -1
-1 -1
-1 -1
-1 -1
-1 -1
29 3
-1 -1
37 5
32 4
38 2
25 2
-1 -1
3 3
26 2
24 9
23 3
19 3
-1 -1
20 3
13 4
2 4
8 3
14 3
31 3
34 5
22 4
12 4
-1 -1
-1 -1
23 4
-1 -1
42 3
-1 -1
4 5
-1 -1
18 5
21 6
15 6
33 4
40 3
43 3
41 4
39 3
30 2
44 5
-1 -1
17 2
43 4
-1 -1
18 3
-1 -1
-1 -1
-1 -1
-1 -1
-1 -1
-1 -1
0 3
30 9
-1 -1
33 3
-1 -1
-1 -1
-1 -1
6 3
-1 -1
-1 -1
-1 -1
-1 -1
-1 -1
-1 -1
-1 -1
-1 -1
7 8
-1 -1
-1 -1
-1 -1
22 3
-1 -1
-1 -1
10 2
-1 -1
-1 -1
-1 -1
-1 -1
34 7
0 5
9 3
-1 -1
21 3
-1 -1
5 4
27 4
-1 -1
38 1
-1 -1
-1 -1
28 3
17 8
36 3
-1 -1
-1 -1
-1 -1
15 4
-1 -1
-1 -1
11 3
-1 -1
-1 -1
-1 -1
-1 -1
14 5
40 4
-1 -1
-1 -1
-1 -1
-1 -1
-1 -1
-1 -1
-1 -1
31 4
-1 -1
-1 -1
-1 -1
38 3
-1 -1
-1 -1
25 3
-1 -1
-1 -1
-1 -1
-1 -1
-1 -1
-1 -1
4 4
-1 -1
27 3
-1 -1
-1 -1
1 5
24 5
34 8
-1 -1
-1 -1
-1 -1
-1 -1
30 4
-1 -1
41 5
-1 -1
27 5
-1 -1
-1 -1
-1 -1
-1 -1
-1 -1
-1 -1
-1 -1
-1 -1
-1 -1
-1 -1
-1 -1
26 3
-1 -1
-1 -1
-1 -1
-1 -1
-1 -1
-1 -1
-1 -1
-1 -1
-1 -1
40 5
-1 -1
41 8
-1 -1
-1 -1
-1 -1
-1 -1
-1 -1
-1 -1
-1 -1
-1 -1
-1 -1
-1 -1
17 4
44 3
-1 -1
-1 -1
-1 -1
30 3
39 4
-1 -1
35 4
-1 -1
-1 -1
-1 -1
-1 -1
-1 -1
-1 -1
-1 -1
-1 -1
